\ENCODING=ISO-8859-1
\Problem name: TSP model version 1

Minimize
 obj1: 5.88232947054141 x(1,2) + 5.42147581383519 x(1,3)
       + 3.34819354279289 x(1,4) + 10.9668591675101 x(1,5)
       + 8.25804456272791 x(1,6) + 7.31221580644335 x(1,7)
       + 0.720277724214763 x(1,8) + 11.7082236056543 x(1,9)
       + 7.93106550218822 x(1,10) + 25.7208572951992 x(1,11)
       + 5.29499763928182 x(1,12) + 5.07079875364819 x(1,13)
       + 5.30050940948132 x(1,14) + 6.69122559775113 x(1,15)
       + 1.29189782877749 x(2,3) + 4.48742687962712 x(2,4)
       + 16.7559004532732 x(2,5) + 14.1039604367 x(2,6)
       + 13.090611139286 x(2,7) + 6.06684431974317 x(2,8)
       + 17.1306187862552 x(2,9) + 13.1973482184869 x(2,10)
       + 31.5536004284773 x(2,11) + 11.0747641058399 x(2,12)
       + 10.8929518497054 x(2,13) + 11.1715710622992 x(2,14)
       + 12.5138043775664 x(2,15) + 4.83011387029333 x(3,4)
       + 16.3882518896922 x(3,5) + 13.4683666418761 x(3,6)
       + 12.3961163273019 x(3,7) + 5.7494347548259 x(3,8)
       + 16.2338319567501 x(3,9) + 12.2851536416929 x(3,10)
       + 30.8569489742586 x(3,11) + 10.402124782947 x(3,12)
       + 10.2571438519697 x(3,13) + 10.598348928017 x(3,14)
       + 12.1121798203296 x(3,15) + 12.8835088388218 x(4,5)
       + 11.0070386571503 x(4,6) + 10.2403955001748 x(4,7)
       + 2.96141857899217 x(4,8) + 14.8748546211383 x(4,9)
       + 11.2032584545747 x(4,10) + 28.3305718262092 x(4,11)
       + 8.29000603136089 x(4,12) + 7.99656176115711 x(4,13)
       + 8.0476704703908 x(4,14) + 8.8336232656821 x(4,15)
       + 4.4010112474294 x(5,6) + 5.56852763304628 x(5,7)
       + 10.6925955688972 x(5,8) + 7.88264549500991 x(5,9)
       + 8.0892644906691 x(5,10) + 15.9631607145953 x(5,11)
       + 6.77998525072142 x(5,12) + 6.7041032211624 x(5,13)
       + 6.13822449898992 x(5,14) + 4.28117974394909 x(5,15)
       + 1.25936491931449 x(6,7) + 8.25009696912709 x(6,8)
       + 4.79760356844956 x(6,9) + 3.71102411741018 x(6,10)
       + 17.4628290949663 x(6,11) + 3.07761271117729 x(6,12)
       + 3.21460728550161 x(6,13) + 2.98041943356971 x(6,14)
       + 2.97015151128693 x(6,15) + 7.38504570060335 x(7,8)
       + 4.89654980573056 x(7,9) + 2.75065446757676 x(7,10)
       + 18.4688386207688 x(7,11) + 2.02061871712602 x(7,12)
       + 2.25621364236634 x(7,13) + 2.25204351645345 x(7,14)
       + 3.17001577283142 x(7,15) + 11.9314584188187 x(8,9)
       + 8.24224483984794 x(8,10) + 25.6903892535711 x(8,11)
       + 5.3943118189441 x(8,12) + 5.12884002480093 x(8,13)
       + 5.27000948765749 x(8,14) + 6.44789112811313 x(8,15)
       + 3.95045566991961 x(9,10) + 15.2085041999534 x(9,11)
       + 6.63162875921142 x(9,12) + 6.9677040694909 x(9,13)
       + 7.11922046294396 x(9,14) + 7.75860812259518 x(9,15)
       + 18.9561520356849 x(10,11) + 3.40828402572321 x(10,12)
       + 3.79610326519182 x(10,13) + 4.22965719651132 x(10,14)
       + 5.82024913556112 x(10,15) + 20.4799340819252 x(11,12)
       + 20.6639420246961 x(11,13) + 20.4301076844935 x(11,14)
       + 19.5389098979447 x(11,15) + 0.388329756778952 x(12,13)
       + 0.960832971957146 x(12,14) + 3.08812240690035 x(12,15)
       + 0.664830805543787 x(13,14) + 2.85245508290665 x(13,15)
       + 2.19155196151038 x(14,15)
Subject To
 degree(1):  x(1,2) + x(1,3) + x(1,4) + x(1,5) + x(1,6) + x(1,7) + x(1,8)
             + x(1,9) + x(1,10) + x(1,11) + x(1,12) + x(1,13) + x(1,14)
             + x(1,15)  = 2
 degree(2):  x(1,2) + x(2,3) + x(2,4) + x(2,5) + x(2,6) + x(2,7) + x(2,8)
             + x(2,9) + x(2,10) + x(2,11) + x(2,12) + x(2,13) + x(2,14)
             + x(2,15)  = 2
 degree(3):  x(1,3) + x(2,3) + x(3,4) + x(3,5) + x(3,6) + x(3,7) + x(3,8)
             + x(3,9) + x(3,10) + x(3,11) + x(3,12) + x(3,13) + x(3,14)
             + x(3,15)  = 2
 degree(4):  x(1,4) + x(2,4) + x(3,4) + x(4,5) + x(4,6) + x(4,7) + x(4,8)
             + x(4,9) + x(4,10) + x(4,11) + x(4,12) + x(4,13) + x(4,14)
             + x(4,15)  = 2
 degree(5):  x(1,5) + x(2,5) + x(3,5) + x(4,5) + x(5,6) + x(5,7) + x(5,8)
             + x(5,9) + x(5,10) + x(5,11) + x(5,12) + x(5,13) + x(5,14)
             + x(5,15)  = 2
 degree(6):  x(1,6) + x(2,6) + x(3,6) + x(4,6) + x(5,6) + x(6,7) + x(6,8)
             + x(6,9) + x(6,10) + x(6,11) + x(6,12) + x(6,13) + x(6,14)
             + x(6,15)  = 2
 degree(7):  x(1,7) + x(2,7) + x(3,7) + x(4,7) + x(5,7) + x(6,7) + x(7,8)
             + x(7,9) + x(7,10) + x(7,11) + x(7,12) + x(7,13) + x(7,14)
             + x(7,15)  = 2
 degree(8):  x(1,8) + x(2,8) + x(3,8) + x(4,8) + x(5,8) + x(6,8) + x(7,8)
             + x(8,9) + x(8,10) + x(8,11) + x(8,12) + x(8,13) + x(8,14)
             + x(8,15)  = 2
 degree(9):  x(1,9) + x(2,9) + x(3,9) + x(4,9) + x(5,9) + x(6,9) + x(7,9)
             + x(8,9) + x(9,10) + x(9,11) + x(9,12) + x(9,13) + x(9,14)
             + x(9,15)  = 2
 degree(10): x(1,10) + x(2,10) + x(3,10) + x(4,10) + x(5,10) + x(6,10)
             + x(7,10) + x(8,10) + x(9,10) + x(10,11) + x(10,12) + x(10,13)
             + x(10,14) + x(10,15)  = 2
 degree(11): x(1,11) + x(2,11) + x(3,11) + x(4,11) + x(5,11) + x(6,11)
             + x(7,11) + x(8,11) + x(9,11) + x(10,11) + x(11,12) + x(11,13)
             + x(11,14) + x(11,15)  = 2
 degree(12): x(1,12) + x(2,12) + x(3,12) + x(4,12) + x(5,12) + x(6,12)
             + x(7,12) + x(8,12) + x(9,12) + x(10,12) + x(11,12) + x(12,13)
             + x(12,14) + x(12,15)  = 2
 degree(13): x(1,13) + x(2,13) + x(3,13) + x(4,13) + x(5,13) + x(6,13)
             + x(7,13) + x(8,13) + x(9,13) + x(10,13) + x(11,13) + x(12,13)
             + x(13,14) + x(13,15)  = 2
 degree(14): x(1,14) + x(2,14) + x(3,14) + x(4,14) + x(5,14) + x(6,14)
             + x(7,14) + x(8,14) + x(9,14) + x(10,14) + x(11,14) + x(12,14)
             + x(13,14) + x(14,15)  = 2
 degree(15): x(1,15) + x(2,15) + x(3,15) + x(4,15) + x(5,15) + x(6,15)
             + x(7,15) + x(8,15) + x(9,15) + x(10,15) + x(11,15) + x(12,15)
             + x(13,15) + x(14,15)  = 2
Bounds
 0 <= x(1,2) <= 1
 0 <= x(1,3) <= 1
 0 <= x(1,4) <= 1
 0 <= x(1,5) <= 1
 0 <= x(1,6) <= 1
 0 <= x(1,7) <= 1
 0 <= x(1,8) <= 1
 0 <= x(1,9) <= 1
 0 <= x(1,10) <= 1
 0 <= x(1,11) <= 1
 0 <= x(1,12) <= 1
 0 <= x(1,13) <= 1
 0 <= x(1,14) <= 1
 0 <= x(1,15) <= 1
 0 <= x(2,3) <= 1
 0 <= x(2,4) <= 1
 0 <= x(2,5) <= 1
 0 <= x(2,6) <= 1
 0 <= x(2,7) <= 1
 0 <= x(2,8) <= 1
 0 <= x(2,9) <= 1
 0 <= x(2,10) <= 1
 0 <= x(2,11) <= 1
 0 <= x(2,12) <= 1
 0 <= x(2,13) <= 1
 0 <= x(2,14) <= 1
 0 <= x(2,15) <= 1
 0 <= x(3,4) <= 1
 0 <= x(3,5) <= 1
 0 <= x(3,6) <= 1
 0 <= x(3,7) <= 1
 0 <= x(3,8) <= 1
 0 <= x(3,9) <= 1
 0 <= x(3,10) <= 1
 0 <= x(3,11) <= 1
 0 <= x(3,12) <= 1
 0 <= x(3,13) <= 1
 0 <= x(3,14) <= 1
 0 <= x(3,15) <= 1
 0 <= x(4,5) <= 1
 0 <= x(4,6) <= 1
 0 <= x(4,7) <= 1
 0 <= x(4,8) <= 1
 0 <= x(4,9) <= 1
 0 <= x(4,10) <= 1
 0 <= x(4,11) <= 1
 0 <= x(4,12) <= 1
 0 <= x(4,13) <= 1
 0 <= x(4,14) <= 1
 0 <= x(4,15) <= 1
 0 <= x(5,6) <= 1
 0 <= x(5,7) <= 1
 0 <= x(5,8) <= 1
 0 <= x(5,9) <= 1
 0 <= x(5,10) <= 1
 0 <= x(5,11) <= 1
 0 <= x(5,12) <= 1
 0 <= x(5,13) <= 1
 0 <= x(5,14) <= 1
 0 <= x(5,15) <= 1
 0 <= x(6,7) <= 1
 0 <= x(6,8) <= 1
 0 <= x(6,9) <= 1
 0 <= x(6,10) <= 1
 0 <= x(6,11) <= 1
 0 <= x(6,12) <= 1
 0 <= x(6,13) <= 1
 0 <= x(6,14) <= 1
 0 <= x(6,15) <= 1
 0 <= x(7,8) <= 1
 0 <= x(7,9) <= 1
 0 <= x(7,10) <= 1
 0 <= x(7,11) <= 1
 0 <= x(7,12) <= 1
 0 <= x(7,13) <= 1
 0 <= x(7,14) <= 1
 0 <= x(7,15) <= 1
 0 <= x(8,9) <= 1
 0 <= x(8,10) <= 1
 0 <= x(8,11) <= 1
 0 <= x(8,12) <= 1
 0 <= x(8,13) <= 1
 0 <= x(8,14) <= 1
 0 <= x(8,15) <= 1
 0 <= x(9,10) <= 1
 0 <= x(9,11) <= 1
 0 <= x(9,12) <= 1
 0 <= x(9,13) <= 1
 0 <= x(9,14) <= 1
 0 <= x(9,15) <= 1
 0 <= x(10,11) <= 1
 0 <= x(10,12) <= 1
 0 <= x(10,13) <= 1
 0 <= x(10,14) <= 1
 0 <= x(10,15) <= 1
 0 <= x(11,12) <= 1
 0 <= x(11,13) <= 1
 0 <= x(11,14) <= 1
 0 <= x(11,15) <= 1
 0 <= x(12,13) <= 1
 0 <= x(12,14) <= 1
 0 <= x(12,15) <= 1
 0 <= x(13,14) <= 1
 0 <= x(13,15) <= 1
 0 <= x(14,15) <= 1
Binaries
 x(1,2)  x(1,3)  x(1,4)  x(1,5)  x(1,6)  x(1,7)  x(1,8)  x(1,9)  x(1,10) 
 x(1,11)  x(1,12)  x(1,13)  x(1,14)  x(1,15)  x(2,3)  x(2,4)  x(2,5)  x(2,6) 
 x(2,7)  x(2,8)  x(2,9)  x(2,10)  x(2,11)  x(2,12)  x(2,13)  x(2,14)  x(2,15) 
 x(3,4)  x(3,5)  x(3,6)  x(3,7)  x(3,8)  x(3,9)  x(3,10)  x(3,11)  x(3,12) 
 x(3,13)  x(3,14)  x(3,15)  x(4,5)  x(4,6)  x(4,7)  x(4,8)  x(4,9)  x(4,10) 
 x(4,11)  x(4,12)  x(4,13)  x(4,14)  x(4,15)  x(5,6)  x(5,7)  x(5,8)  x(5,9) 
 x(5,10)  x(5,11)  x(5,12)  x(5,13)  x(5,14)  x(5,15)  x(6,7)  x(6,8)  x(6,9) 
 x(6,10)  x(6,11)  x(6,12)  x(6,13)  x(6,14)  x(6,15)  x(7,8)  x(7,9)  x(7,10) 
 x(7,11)  x(7,12)  x(7,13)  x(7,14)  x(7,15)  x(8,9)  x(8,10)  x(8,11) 
 x(8,12)  x(8,13)  x(8,14)  x(8,15)  x(9,10)  x(9,11)  x(9,12)  x(9,13) 
 x(9,14)  x(9,15)  x(10,11)  x(10,12)  x(10,13)  x(10,14)  x(10,15)  x(11,12) 
 x(11,13)  x(11,14)  x(11,15)  x(12,13)  x(12,14)  x(12,15)  x(13,14) 
 x(13,15)  x(14,15) 
End
